\ This file has been generated by DOcplex
\ ENCODING=ISO-8859-1
\Problem name: Orandom27042_6.lp

Minimize
 obj: - 423.999992872389 x0 - 211.999996436194 x1 - 105.999998218097 x2
      - 423.999992872389 x3 - 211.999996436194 x4 - 105.999998218097 x5 + [
      239.999995927079 x0^2 + 239.999995927079 x0*x1 + 119.999997963540 x0*x2
      + 479.999991854159 x0*x3 + 239.999995927079 x0*x4 + 119.999997963540 x0*x5
      + 59.999998981770 x1^2 + 59.999998981770 x1*x2 + 239.999995927079 x1*x3
      + 119.999997963540 x1*x4 + 59.999998981770 x1*x5 + 14.999999745442 x2^2
      + 119.999997963540 x2*x3 + 59.999998981770 x2*x4 + 29.999999490885 x2*x5
      + 239.999995927079 x3^2 + 239.999995927079 x3*x4 + 119.999997963540 x3*x5
      + 59.999998981770 x4^2 + 59.999998981770 x4*x5 + 14.999999745442 x5^2 ]/2
      + 367.499993763340
Subject To

Bounds
 0 <= x0 <= 1
 0 <= x1 <= 1
 0 <= x2 <= 1
 0 <= x3 <= 1
 0 <= x4 <= 1
 0 <= x5 <= 1

Binaries
 x0 x1 x2 x3 x4 x5
End
